c ind 11 12 16 17 20 23 24 32 35 42 0
c ind 45 54 57 64 67 7 79 8 88 0
p cnf 93 285
-1 2 0
-1 36 0
-10 -11 12 0
-10 -12 11 0
-13 -14 18 0
-13 14 27 0
-14 -15 0
-15 -16 17 0
-15 -17 16 0
-18 -19 21 0
-18 19 25 0
-19 -16 20 0
-19 -20 16 0
-2 -3 29 0
-2 3 34 0
-21 -22 0
-22 -23 24 0
-22 -24 23 0
-24 0
-25 -26 0
-26 -20 23 0
-26 -23 20 0
-27 -28 0
-28 -23 23 0
-29 -30 31 0
-29 30 33 0
-3 4 13 0
-30 -11 20 0
-30 -20 11 0
-31 -32 7 0
-31 -7 32 0
-33 -24 32 0
-33 -32 24 0
-34 -32 35 0
-34 -35 32 0
-36 -37 46 0
-36 37 93 0
-37 -24 38 0
-37 -38 24 0
-38 -39 -24 0
-38 39 24 0
-39 -40 -43 0
-39 40 43 0
-4 5 9 0
-40 -41 -20 0
-40 41 20 0
-41 -42 0
-43 -44 -20 0
-43 44 20 0
-44 -45 0
-46 -47 48 0
-46 47 70 0
-47 -24 40 0
-47 -40 24 0
-48 -49 58 0
-48 49 68 0
-49 -24 50 0
-49 -50 24 0
-5 -6 0
-50 -51 -24 0
-50 51 24 0
-51 -52 -55 0
-51 52 55 0
-52 -53 -20 0
-52 53 20 0
-53 -54 0
-55 -56 -20 0
-55 56 20 0
-56 -57 0
-58 -59 20 0
-58 59 24 0
-59 -24 60 0
-59 -60 24 0
-6 -7 8 0
-6 -8 7 0
-60 -61 -24 0
-60 61 24 0
-61 -62 -65 0
-61 62 65 0
-62 -63 -20 0
-62 63 20 0
-63 -64 0
-65 -66 -20 0
-65 66 20 0
-66 -67 0
-68 -69 20 0
-68 69 24 0
-69 -20 65 0
-69 -65 20 0
-70 -71 72 0
-70 71 58 0
-71 -20 52 0
-71 -52 20 0
-72 -49 58 0
-72 49 73 0
-73 -74 80 0
-73 74 92 0
-74 -24 75 0
-74 -75 24 0
-75 -76 -24 0
-75 76 24 0
-76 -43 -77 0
-76 43 77 0
-77 -78 -20 0
-77 78 20 0
-78 -79 0
-80 -81 82 0
-80 81 89 0
-81 -24 43 0
-81 -43 24 0
-82 -83 89 0
-82 83 68 0
-83 -24 84 0
-83 -84 24 0
-84 -85 -24 0
-84 85 24 0
-85 -55 -86 0
-85 55 86 0
-86 -87 -20 0
-86 87 20 0
-87 -88 0
-89 -90 20 0
-89 90 91 0
-9 -10 0
-90 -24 65 0
-90 -65 24 0
-91 -59 20 0
-91 59 68 0
-92 -81 68 0
-92 81 89 0
-93 -47 68 0
-93 47 70 0
1 -2 -36 0
1 0
10 -11 -12 0
10 11 12 0
13 -14 -18 0
13 -18 -27 0
13 14 -27 0
14 15 0
15 -16 -17 0
15 16 17 0
18 -19 -21 0
18 -21 -25 0
18 19 -25 0
19 -16 -20 0
19 16 20 0
2 -29 -34 0
2 -3 -29 0
2 3 -34 0
20 0
21 22 0
22 -23 -24 0
22 23 24 0
25 26 0
26 -23 -20 0
26 23 20 0
27 28 0
28 -23 -23 0
28 23 23 0
29 -30 -31 0
29 -31 -33 0
29 30 -33 0
3 -13 0
3 -4 0
30 -11 -20 0
30 11 20 0
31 -32 -7 0
31 32 7 0
33 -32 -24 0
33 32 24 0
34 -32 -35 0
34 32 35 0
36 -37 -46 0
36 -46 -93 0
36 37 -93 0
37 -38 -24 0
37 38 24 0
38 -24 39 0
38 -39 24 0
39 -40 43 0
39 -43 40 0
4 -5 0
4 -9 0
40 -20 41 0
40 -41 20 0
41 42 0
43 -20 44 0
43 -44 20 0
44 45 0
46 -47 -48 0
46 -48 -70 0
46 47 -70 0
47 -40 -24 0
47 40 24 0
48 -49 -58 0
48 -58 -68 0
48 49 -68 0
49 -50 -24 0
49 50 24 0
5 6 0
50 -24 51 0
50 -51 24 0
51 -52 55 0
51 -55 52 0
52 -20 53 0
52 -53 20 0
53 54 0
55 -20 56 0
55 -56 20 0
56 57 0
58 -20 -24 0
58 -59 -20 0
58 59 -24 0
59 -60 -24 0
59 60 24 0
6 -7 -8 0
6 7 8 0
60 -24 61 0
60 -61 24 0
61 -62 65 0
61 -65 62 0
62 -20 63 0
62 -63 20 0
63 64 0
65 -20 66 0
65 -66 20 0
66 67 0
68 -20 -24 0
68 -69 -20 0
68 69 -24 0
69 -65 -20 0
69 65 20 0
70 -71 -72 0
70 -72 -58 0
70 71 -58 0
71 -52 -20 0
71 52 20 0
72 -49 -58 0
72 -58 -73 0
72 49 -73 0
73 -74 -80 0
73 -80 -92 0
73 74 -92 0
74 -75 -24 0
74 75 24 0
75 -24 76 0
75 -76 24 0
76 -43 77 0
76 -77 43 0
77 -20 78 0
77 -78 20 0
78 79 0
80 -81 -82 0
80 -82 -89 0
80 81 -89 0
81 -43 -24 0
81 43 24 0
82 -83 -89 0
82 -89 -68 0
82 83 -68 0
83 -84 -24 0
83 84 24 0
84 -24 85 0
84 -85 24 0
85 -55 86 0
85 -86 55 0
86 -20 87 0
86 -87 20 0
87 88 0
89 -20 -91 0
89 -90 -20 0
89 90 -91 0
9 10 0
90 -65 -24 0
90 65 24 0
91 -20 -68 0
91 -59 -20 0
91 59 -68 0
92 -68 -89 0
92 -81 -68 0
92 81 -89 0
93 -47 -68 0
93 -68 -70 0
93 47 -70 0
